c uprop, v00.0, 
c reading from data/prog300.c.cnf
c done reading: 0.002343
p cnf 129 539
-42 -58 0
42 58 0
-30 -52 0
30 52 0
-44 -47 0
44 47 0
-35 -40 0
35 40 0
-33 -49 0
33 49 0
-28 -37 0
28 37 0
-55 -61 0
55 61 0
58 -63 0
-58 63 0
-58 -64 0
58 64 0
-52 -58 65 0
-52 -63 65 0
-58 -63 65 0
52 58 -65 0
52 63 -65 0
58 63 -65 0
52 -65 -66 0
58 -65 -66 0
63 -65 -66 0
-52 65 66 0
-58 65 66 0
-63 65 66 0
-52 -58 -63 66 0
52 58 63 -66 0
-47 -52 67 0
-47 -65 67 0
-52 -65 67 0
47 52 -67 0
47 65 -67 0
52 65 -67 0
47 -67 -68 0
52 -67 -68 0
65 -67 -68 0
-47 67 68 0
-52 67 68 0
-65 67 68 0
-47 -52 -65 68 0
47 52 65 -68 0
-40 -47 69 0
-40 -67 69 0
-47 -67 69 0
40 47 -69 0
40 67 -69 0
47 67 -69 0
40 -69 -70 0
47 -69 -70 0
67 -69 -70 0
-40 69 70 0
-47 69 70 0
-67 69 70 0
-40 -47 -67 70 0
40 47 67 -70 0
-33 -40 71 0
-33 -69 71 0
-40 -69 71 0
33 40 -71 0
33 69 -71 0
40 69 -71 0
33 -71 -72 0
40 -71 -72 0
69 -71 -72 0
-33 71 72 0
-40 71 72 0
-69 71 72 0
-33 -40 -69 72 0
33 40 69 -72 0
-28 -33 73 0
-28 -71 73 0
-33 -71 73 0
28 33 -73 0
28 71 -73 0
33 71 -73 0
28 -73 -74 0
33 -73 -74 0
71 -73 -74 0
-28 73 74 0
-33 73 74 0
-71 73 74 0
-28 -33 -71 74 0
28 33 71 -74 0
-28 -55 75 0
-55 -73 75 0
-28 -73 75 0
28 55 -75 0
55 73 -75 0
28 73 -75 0
55 -60 -75 0
28 -60 -75 0
-60 73 -75 0
-55 60 75 0
-28 60 75 0
60 -73 75 0
-28 -55 60 -73 0
28 55 -60 73 0
55 -57 0
-57 75 0
-55 57 -75 0
-51 -55 -75 0
-51 55 75 0
51 -55 75 0
51 55 -75 0
-46 72 0
46 -72 0
-39 -72 0
39 72 0
32 -58 -74 0
32 -46 -74 0
32 -46 -58 0
-32 58 74 0
-32 46 74 0
-32 46 58 0
-27 -32 74 0
-27 -32 58 0
-27 -32 46 0
27 32 -74 0
27 32 -58 0
27 32 -46 0
27 -46 -58 -74 0
-27 46 58 74 0
-52 54 -60 0
-32 54 -60 0
-32 -52 54 0
52 -54 60 0
32 -54 60 0
32 52 -54 0
-26 -54 60 0
-26 52 -54 0
-26 32 -54 0
26 54 -60 0
26 -52 54 0
26 -32 54 0
26 -32 -52 -60 0
-26 32 52 60 0
25 -47 -51 0
25 -51 -54 0
25 -47 -54 0
-25 47 51 0
-25 51 54 0
-25 47 54 0
-24 -25 51 0
-24 -25 47 0
-24 -25 54 0
24 25 -51 0
24 25 -47 0
24 25 -54 0
24 -47 -51 -54 0
-24 47 51 54 0
23 -40 -57 0
23 -25 -57 0
23 -25 -40 0
-23 40 57 0
-23 25 57 0
-23 25 40 0
-22 -23 57 0
-22 -23 40 0
-22 -23 25 0
22 23 -57 0
22 23 -40 0
22 23 -25 0
22 -25 -40 -57 0
-22 25 40 57 0
-21 33 0
-21 23 0
21 -23 -33 0
-20 -23 -33 0
-20 23 33 0
20 23 -33 0
20 -23 33 0
-19 28 0
-19 21 0
19 -21 -28 0
-18 -21 -28 0
-18 21 28 0
18 21 -28 0
18 -21 28 0
-17 55 0
-17 19 0
17 -19 -55 0
-16 -19 -55 0
-16 19 55 0
16 19 -55 0
16 -19 55 0
-15 -64 0
15 64 0
-14 -66 0
14 66 0
-13 -68 0
13 68 0
-12 -70 0
12 70 0
-11 -39 0
11 39 0
-10 -27 0
10 27 0
-9 -26 0
9 26 0
-8 -24 0
8 24 0
-7 -22 0
7 22 0
-6 -20 0
6 20 0
-5 -18 0
5 18 0
-4 -16 0
4 16 0
-3 -17 0
3 17 0
-76 -78 0
-78 -79 0
76 78 79 0
76 79 -81 0
-76 -79 -81 0
-76 79 81 0
76 -79 81 0
78 -82 0
-82 -83 0
-78 82 83 0
-78 83 -85 0
78 -83 -85 0
78 83 85 0
-78 -83 85 0
82 -86 0
-86 -87 0
-82 86 87 0
-82 87 -89 0
82 -87 -89 0
82 87 89 0
-82 -87 89 0
86 -90 0
-90 -91 0
-86 90 91 0
-86 91 -93 0
86 -91 -93 0
86 91 93 0
-86 -91 93 0
90 -94 0
-94 -95 0
-90 94 95 0
-90 95 -97 0
90 -95 -97 0
90 95 97 0
-90 -95 97 0
94 -98 0
-98 -99 0
-94 98 99 0
-94 99 -101 0
94 -99 -101 0
94 99 101 0
-94 -99 101 0
98 -102 0
-102 -103 0
-98 102 103 0
-98 103 -105 0
98 -103 -105 0
98 103 105 0
-98 -103 105 0
83 -106 0
76 -106 0
-76 -83 106 0
-76 -83 -107 0
76 83 -107 0
76 -83 107 0
-76 83 107 0
-79 -87 108 0
-87 -106 108 0
-79 -106 108 0
79 87 -108 0
87 106 -108 0
79 106 -108 0
87 -108 -109 0
79 -108 -109 0
106 -108 -109 0
-87 108 109 0
-79 108 109 0
-106 108 109 0
-79 -87 -106 109 0
79 87 106 -109 0
-83 -91 110 0
-91 -108 110 0
-83 -108 110 0
83 91 -110 0
91 108 -110 0
83 108 -110 0
91 -110 -111 0
83 -110 -111 0
108 -110 -111 0
-91 110 111 0
-83 110 111 0
-108 110 111 0
-83 -91 -108 111 0
83 91 108 -111 0
-87 -95 112 0
-95 -110 112 0
-87 -110 112 0
87 95 -112 0
95 110 -112 0
87 110 -112 0
95 -112 -113 0
87 -112 -113 0
110 -112 -113 0
-95 112 113 0
-87 112 113 0
-110 112 113 0
-87 -95 -110 113 0
87 95 110 -113 0
-91 -99 114 0
-99 -112 114 0
-91 -112 114 0
91 99 -114 0
99 112 -114 0
91 112 -114 0
99 -114 -115 0
91 -114 -115 0
112 -114 -115 0
-99 114 115 0
-91 114 115 0
-112 114 115 0
-91 -99 -112 115 0
91 99 112 -115 0
59 -95 -103 0
59 -103 -114 0
59 -95 -114 0
-59 95 103 0
-59 103 114 0
-59 95 114 0
-53 -59 103 0
-53 -59 95 0
-53 -59 114 0
53 59 -103 0
53 59 -95 0
53 59 -114 0
53 -95 -103 -114 0
-53 95 103 114 0
-48 99 0
-48 59 0
48 -59 -99 0
-41 -59 -99 0
-41 59 99 0
41 59 -99 0
41 -59 99 0
-34 103 0
-34 48 0
34 -48 -103 0
-29 -48 -103 0
-29 48 103 0
29 48 -103 0
29 -48 103 0
-56 -76 0
-56 -79 0
56 76 79 0
76 -77 79 0
-76 -77 -79 0
-76 77 79 0
76 77 -79 0
56 -80 0
-80 -107 0
-56 80 107 0
-56 -84 107 0
56 -84 -107 0
56 84 107 0
-56 84 -107 0
80 -88 0
-88 -109 0
-80 88 109 0
-80 -92 109 0
80 -92 -109 0
80 92 109 0
-80 92 -109 0
88 -96 0
-96 -111 0
-88 96 111 0
-88 -100 111 0
88 -100 -111 0
88 100 111 0
-88 100 -111 0
96 -104 0
-104 -113 0
-96 104 113 0
-96 113 -116 0
96 -113 -116 0
96 113 116 0
-96 -113 116 0
104 -117 0
-115 -117 0
-104 115 117 0
-104 115 -118 0
104 -115 -118 0
104 115 118 0
-104 -115 118 0
117 -119 0
-53 -119 0
53 -117 119 0
53 -117 -120 0
-53 117 -120 0
53 117 120 0
-53 -117 120 0
119 -121 0
-41 -121 0
41 -119 121 0
41 -119 -122 0
-41 119 -122 0
41 119 122 0
-41 -119 122 0
121 -123 0
-29 -123 0
29 -121 123 0
29 -121 -124 0
-29 121 -124 0
29 121 124 0
-29 -121 124 0
123 -125 0
-34 -125 0
34 -123 125 0
34 -123 -126 0
-34 123 -126 0
34 123 126 0
-34 -123 126 0
64 -127 0
76 -127 0
-64 -76 127 0
-64 76 0
64 -76 0
-66 -79 128 0
-66 -127 128 0
-79 -127 128 0
66 79 -128 0
66 127 -128 0
79 127 -128 0
66 -128 0
79 -128 0
127 -128 0
66 79 127 0
-68 -107 129 0
-68 -128 129 0
-107 -128 129 0
68 107 -129 0
68 128 -129 0
107 128 -129 0
-68 129 0
-107 129 0
-128 129 0
-68 -107 -128 0
43 -70 -109 0
43 -70 -129 0
43 -109 -129 0
-43 70 109 0
-43 70 129 0
-43 109 129 0
43 -70 0
43 -109 0
43 -129 0
-70 -109 -129 0
31 -39 -111 0
31 -39 -43 0
31 -43 -111 0
-31 39 111 0
-31 39 43 0
-31 43 111 0
-31 39 0
-31 111 0
-31 43 0
39 43 111 0
-27 45 -113 0
-27 -31 45 0
-31 45 -113 0
27 -45 113 0
27 31 -45 0
31 -45 113 0
-27 45 0
45 -113 0
-31 45 0
-27 -31 -113 0
-26 36 -115 0
-26 36 -45 0
36 -45 -115 0
26 -36 115 0
26 -36 45 0
-36 45 115 0
26 -36 0
-36 115 0
-36 45 0
26 45 115 0
-24 50 -53 0
-24 -36 50 0
-36 50 -53 0
24 -50 53 0
24 36 -50 0
36 -50 53 0
-24 50 0
50 -53 0
-36 50 0
-24 -36 -53 0
-22 38 -41 0
-22 38 -50 0
38 -41 -50 0
22 -38 41 0
22 -38 50 0
-38 41 50 0
-22 38 0
38 -41 0
38 -50 0
-22 -41 -50 0
-20 -29 62 0
-20 -38 62 0
-29 -38 62 0
20 29 -62 0
20 38 -62 0
29 38 -62 0
-20 62 0
-29 62 0
-38 62 0
-20 -29 -38 0
2 -18 -34 0
2 -18 -62 0
2 -34 -62 0
-2 18 34 0
-2 18 62 0
-2 34 62 0
2 -18 0
2 -34 0
2 -62 0
-18 -34 -62 0
-1 16 0
-1 2 0
1 -2 -16 0
2 -16 0
-2 16 0
-1 -17 0
1 -17 0
-1 17 0
